data/solutions/recovery/wellformed/moderate/flexible/wellformed_moderate_instance76/20.sol
Elapsed time: 0.03
Upper bound: 1895.0
Planning weighted value: 139673.0
C[0]=1895.0
C[1]=1867.0
C[2]=1862.0
C[3]=1855.0
C[4]=1802.0
C[5]=0.0
y[0]=0
y[1]=2
y[2]=0
y[3]=3
y[4]=3
y[5]=4
y[6]=1
y[7]=2
y[8]=1
y[9]=4
y[10]=3
y[11]=3
y[12]=4
y[13]=0
y[14]=4
y[15]=4
y[16]=2
y[17]=3
y[18]=4
y[19]=1
